10
0	95	63	11	38	91	67	25	55	80	
95	0	16	64	66	73	65	73	84	48	
63	16	0	21	90	99	36	15	73	7	
11	64	21	0	62	59	35	28	40	1	
38	66	90	62	0	99	1	29	38	53	
91	73	99	59	99	0	94	38	42	68	
67	65	36	35	1	94	0	29	28	81	
25	73	15	28	29	38	29	0	61	30	
55	84	73	40	38	42	28	61	0	19	
80	48	7	1	53	68	81	30	19	0	
